33 12 3967
12 5 38538
5 32 3290
32 20 24202
20 24 65657
24 22 45980
22 4 23621
4 19 26533
19 40 13572
40 27 17541
27 16 59028
16 3 71701
3 14 30026
14 17 42391
17 15 45489
15 8 26227
8 9 54349
9 6 47658
6 36 22446
36 7 11794
7 21 17005
21 1 6578
1 10 6947
10 11 5506
11 35 5412
35 2 10541
2 18 16361
18 13 28045
13 28 6411
28 29 17517
29 38 745
38 23 7449
23 34 31609
34 25 30137
25 31 7859
31 39 9087
39 30 6375
30 37 941
37 26 14546
26 33 15458
